; benchmark generated from python API
(set-info :status unknown)
(declare-fun R () (_ BitVec 32))
(declare-fun rdi () (_ BitVec 32))
(assert
 (let (($x937 (= (_ bv0 32) R)))
 (let ((?x6 ((_ extract 31 0) rdi)))
 (let ((?x7 ((_ zero_extend 32) ?x6)))
 (let ((?x11 (bvlshr ?x7 (_ bv31 64))))
 (let ((?x20 ((_ extract 0 0) ?x11)))
 (let ((?x27 (bvand ?x20 (_ bv1 1))))
 (let (($x26 (and (distinct (_ bv0 1) ?x27) true)))
 (let ((?x90 (bvmul (_ bv4294967295 32) ?x6)))
 (let ((?x80 ((_ extract 29 0) rdi)))
 (let ((?x81 (concat ?x80 (_ bv0 2))))
 (let ((?x89 (bvmul (_ bv4294967295 32) ?x81)))
 (let ((?x91 (bvadd ?x89 ?x90)))
 (let ((?x949 ((_ zero_extend 32) ?x91)))
 (let ((?x943 (bvlshr ?x949 (_ bv31 64))))
 (let ((?x941 ((_ extract 0 0) ?x943)))
 (let ((?x946 (bvand ?x941 (_ bv1 1))))
 (let (($x944 (and (distinct (_ bv0 1) ?x946) true)))
 (let (($x1004 (and $x944 $x26 $x937)))
 (let ((?x43 ((_ extract 31 31) ?x91)))
 (let ((?x930 (concat (concat (concat (concat (concat ?x43 ?x43) ?x43) ?x43) ?x43) ?x43)))
 (let ((?x891 (concat (concat (concat (concat (concat ?x930 ?x43) ?x43) ?x43) ?x43) ?x43)))
 (let ((?x896 (concat (concat (concat (concat (concat ?x891 ?x43) ?x43) ?x43) ?x43) ?x43)))
 (let ((?x897 (concat (concat (concat (concat (concat ?x896 ?x43) ?x43) ?x43) ?x43) ?x43)))
 (let ((?x42 (concat (concat (concat (concat (concat ?x897 ?x43) ?x43) ?x43) ?x43) ?x43)))
 (let ((?x922 (concat (concat (concat (concat (concat ?x42 ?x43) ?x43) ?x43) ?x43) ?x43)))
 (let ((?x923 (concat (concat ?x922 ?x43) ?x91)))
 (let ((?x920 (bvmul (_ bv1717986919 64) ?x923)))
 (let ((?x66 ((_ extract 63 32) ?x920)))
 (let ((?x73 ((_ extract 63 63) ?x920)))
 (let ((?x69 (concat (concat (concat (concat (concat ?x73 ?x73) ?x73) ?x73) ?x73) ?x73)))
 (let ((?x70 (concat (concat (concat (concat (concat ?x69 ?x73) ?x73) ?x73) ?x73) ?x73)))
 (let ((?x902 (concat (concat (concat (concat (concat ?x70 ?x73) ?x73) ?x73) ?x73) ?x73)))
 (let ((?x975 (concat (concat (concat (concat (concat ?x902 ?x73) ?x73) ?x73) ?x73) ?x73)))
 (let ((?x984 (concat (concat (concat (concat (concat ?x975 ?x73) ?x73) ?x73) ?x73) ?x73)))
 (let ((?x989 (concat (concat (concat (concat (concat ?x984 ?x73) ?x73) ?x73) ?x73) ?x73)))
 (let ((?x991 (concat (concat ?x989 ?x73) ?x66)))
 (let ((?x992 (bvashr ?x991 (_ bv1 64))))
 (let ((?x993 ((_ extract 31 0) ?x992)))
 (let ((?x994 (bvmul (_ bv4294967295 32) ?x993)))
 (let ((?x904 (bvashr ?x923 (_ bv31 64))))
 (let ((?x487 ((_ extract 31 0) ?x904)))
 (let ((?x995 (bvadd ?x487 ?x994)))
 (let (($x996 (= R ?x995)))
 (let (($x953 (= (_ bv0 1) ?x946)))
 (let (($x1003 (and $x953 $x26 $x996)))
 (let (($x998 (= (_ bv4294967295 32) R)))
 (let (($x53 (= (_ bv0 1) ?x27)))
 (let ((?x486 (bvadd (bvadd (_ bv1 32) (concat (bvadd (_ bv1 30) ?x80) (_ bv0 2))) ?x6)))
 (let ((?x939 ((_ zero_extend 32) ?x486)))
 (let ((?x935 (bvlshr ?x939 (_ bv31 64))))
 (let ((?x957 ((_ extract 0 0) ?x935)))
 (let ((?x958 (bvand ?x957 (_ bv1 1))))
 (let (($x959 (and (distinct (_ bv0 1) ?x958) true)))
 (let (($x1002 (and $x959 $x53 $x998)))
 (let ((?x847 ((_ extract 31 31) ?x486)))
 (let ((?x843 (concat (concat (concat (concat (concat ?x847 ?x847) ?x847) ?x847) ?x847) ?x847)))
 (let ((?x839 (concat (concat (concat (concat (concat ?x843 ?x847) ?x847) ?x847) ?x847) ?x847)))
 (let ((?x475 (concat (concat (concat (concat (concat ?x839 ?x847) ?x847) ?x847) ?x847) ?x847)))
 (let ((?x272 (concat (concat (concat (concat (concat ?x475 ?x847) ?x847) ?x847) ?x847) ?x847)))
 (let ((?x466 (concat (concat (concat (concat (concat ?x272 ?x847) ?x847) ?x847) ?x847) ?x847)))
 (let ((?x461 (concat (concat (concat (concat (concat ?x466 ?x847) ?x847) ?x847) ?x847) ?x847)))
 (let ((?x459 (concat (concat ?x461 ?x847) ?x486)))
 (let ((?x921 (bvashr ?x459 (_ bv31 64))))
 (let ((?x924 ((_ extract 31 0) ?x921)))
 (let ((?x925 (bvmul (_ bv4294967295 32) ?x924)))
 (let ((?x458 (bvmul (_ bv1717986919 64) ?x459)))
 (let ((?x456 ((_ extract 63 32) ?x458)))
 (let ((?x457 ((_ extract 63 63) ?x458)))
 (let ((?x451 (concat (concat (concat (concat (concat ?x457 ?x457) ?x457) ?x457) ?x457) ?x457)))
 (let ((?x446 (concat (concat (concat (concat (concat ?x451 ?x457) ?x457) ?x457) ?x457) ?x457)))
 (let ((?x470 (concat (concat (concat (concat (concat ?x446 ?x457) ?x457) ?x457) ?x457) ?x457)))
 (let ((?x872 (concat (concat (concat (concat (concat ?x470 ?x457) ?x457) ?x457) ?x457) ?x457)))
 (let ((?x836 (concat (concat (concat (concat (concat ?x872 ?x457) ?x457) ?x457) ?x457) ?x457)))
 (let ((?x482 (concat (concat (concat (concat (concat ?x836 ?x457) ?x457) ?x457) ?x457) ?x457)))
 (let ((?x481 (concat (concat ?x482 ?x457) ?x456)))
 (let ((?x480 (bvashr ?x481 (_ bv1 64))))
 (let ((?x477 ((_ extract 31 0) ?x480)))
 (let ((?x932 (bvadd (bvadd (_ bv4294967295 32) ?x477) ?x925)))
 (let (($x931 (= R ?x932)))
 (let (($x962 (= (_ bv0 1) ?x958)))
 (let (($x1001 (and $x962 $x53 $x931)))
 (let (($x1005 (or $x1001 $x1002 $x1003 $x1004)))
 (let (($x102 (bvsge (_ bv4 32) ?x91)))
 (let (($x999 (and $x102 $x26 $x998)))
 (let (($x476 (bvslt (_ bv4 32) ?x91)))
 (let (($x997 (and $x476 $x26 $x996)))
 (let (($x488 (bvsge (_ bv4 32) ?x486)))
 (let (($x933 (and $x488 $x53 $x937)))
 (let (($x875 (bvslt (_ bv4 32) ?x486)))
 (let (($x938 (and $x875 $x53 $x931)))
 (let (($x1000 (or $x938 $x933 $x997 $x999)))
 (and $x1000 $x1005)))))))))))))))))))))))))))))))))))))))))))))))))))))))))))))))))))))))))))))))))))))))))))))
(check-sat)

